certificates/rado_a14_c276_N39.cnf
c Rad2 upper bound instance: x1 + 14*x2 - x3 = 276, interval [1,39]
p cnf 39 216
1 5 20 0
-1 -5 -20 0
1 19 21 0
-1 -19 -21 0
1 22 33 0
-1 -22 -33 0
2 6 20 0
-2 -6 -20 0
2 20 21 0
-2 -20 -21 0
2 22 34 0
-2 -22 -34 0
3 7 20 0
-3 -7 -20 0
3 21 0
-3 -21 0
3 22 35 0
-3 -22 -35 0
4 8 20 0
-4 -8 -20 0
4 21 22 0
-4 -21 -22 0
4 22 36 0
-4 -22 -36 0
5 9 20 0
-5 -9 -20 0
5 21 23 0
-5 -21 -23 0
5 22 37 0
-5 -22 -37 0
6 10 20 0
-6 -10 -20 0
6 21 24 0
-6 -21 -24 0
6 22 38 0
-6 -22 -38 0
7 11 20 0
-7 -11 -20 0
7 21 25 0
-7 -21 -25 0
7 22 39 0
-7 -22 -39 0
8 12 20 0
-8 -12 -20 0
8 21 26 0
-8 -21 -26 0
9 13 20 0
-9 -13 -20 0
9 21 27 0
-9 -21 -27 0
10 14 20 0
-10 -14 -20 0
10 21 28 0
-10 -21 -28 0
1 11 19 0
-1 -11 -19 0
11 15 20 0
-11 -15 -20 0
11 21 29 0
-11 -21 -29 0
2 12 19 0
-2 -12 -19 0
12 16 20 0
-12 -16 -20 0
12 21 30 0
-12 -21 -30 0
3 13 19 0
-3 -13 -19 0
13 17 20 0
-13 -17 -20 0
13 21 31 0
-13 -21 -31 0
4 14 19 0
-4 -14 -19 0
14 18 20 0
-14 -18 -20 0
14 21 32 0
-14 -21 -32 0
5 15 19 0
-5 -15 -19 0
15 19 20 0
-15 -19 -20 0
15 21 33 0
-15 -21 -33 0
6 16 19 0
-6 -16 -19 0
16 20 0
-16 -20 0
16 21 34 0
-16 -21 -34 0
7 17 19 0
-7 -17 -19 0
17 20 21 0
-17 -20 -21 0
17 21 35 0
-17 -21 -35 0
8 18 19 0
-8 -18 -19 0
18 20 22 0
-18 -20 -22 0
18 21 36 0
-18 -21 -36 0
9 19 0
-9 -19 0
19 20 23 0
-19 -20 -23 0
19 21 37 0
-19 -21 -37 0
10 19 20 0
-10 -19 -20 0
20 24 0
-20 -24 0
20 21 38 0
-20 -21 -38 0
11 19 21 0
-11 -19 -21 0
20 21 25 0
-20 -21 -25 0
21 39 0
-21 -39 0
12 19 22 0
-12 -19 -22 0
20 22 26 0
-20 -22 -26 0
13 19 23 0
-13 -19 -23 0
20 23 27 0
-20 -23 -27 0
14 19 24 0
-14 -19 -24 0
20 24 28 0
-20 -24 -28 0
1 18 25 0
-1 -18 -25 0
15 19 25 0
-15 -19 -25 0
20 25 29 0
-20 -25 -29 0
2 18 26 0
-2 -18 -26 0
16 19 26 0
-16 -19 -26 0
20 26 30 0
-20 -26 -30 0
3 18 27 0
-3 -18 -27 0
17 19 27 0
-17 -19 -27 0
20 27 31 0
-20 -27 -31 0
4 18 28 0
-4 -18 -28 0
18 19 28 0
-18 -19 -28 0
20 28 32 0
-20 -28 -32 0
5 18 29 0
-5 -18 -29 0
19 29 0
-19 -29 0
20 29 33 0
-20 -29 -33 0
6 18 30 0
-6 -18 -30 0
19 20 30 0
-19 -20 -30 0
20 30 34 0
-20 -30 -34 0
7 18 31 0
-7 -18 -31 0
19 21 31 0
-19 -21 -31 0
20 31 35 0
-20 -31 -35 0
8 18 32 0
-8 -18 -32 0
19 22 32 0
-19 -22 -32 0
20 32 36 0
-20 -32 -36 0
9 18 33 0
-9 -18 -33 0
19 23 33 0
-19 -23 -33 0
20 33 37 0
-20 -33 -37 0
10 18 34 0
-10 -18 -34 0
19 24 34 0
-19 -24 -34 0
20 34 38 0
-20 -34 -38 0
11 18 35 0
-11 -18 -35 0
19 25 35 0
-19 -25 -35 0
20 35 39 0
-20 -35 -39 0
12 18 36 0
-12 -18 -36 0
19 26 36 0
-19 -26 -36 0
13 18 37 0
-13 -18 -37 0
19 27 37 0
-19 -27 -37 0
14 18 38 0
-14 -18 -38 0
19 28 38 0
-19 -28 -38 0
1 17 39 0
-1 -17 -39 0
15 18 39 0
-15 -18 -39 0
19 29 39 0
-19 -29 -39 0
