certificates/rado_a14_c276_N39.drat
-35 -39 0
-39 0
21 0
-3 0
35 0
-17 0
1 0
-19 0
9 0
27 0
29 0
7 0
13 0
0
